40
0 1 0.63 0.14
0 2 0.34 0.18
0 3 0.74 0.17
0 4 0.72 0.2
0 5 0.63 0.25
0 6 0.64 0.19
0 7 0.5 0.09
0 8 0.52 0.22
0 9 0.64 0.26
0 10 0.56 0.26
0 11 0.42 0.27
0 12 0.63 0.27
0 13 0.48 0.11
0 14 0.34 0.14
0 15 0.54 0.19
0 16 0.59 0.34
0 17 0.83 0.21
0 18 0.66 0.12
0 19 0.64 0.2
0 20 0.68 0.31
0 21 0.56 0.21
0 22 0.54 0.2
0 23 0.58 0.23
0 24 0.41 0.2
0 25 0.78 0.3
0 26 0.44 0.17
0 27 0.56 0.18
0 28 0.76 0.22
0 29 0.56 0.2
0 30 0.58 0.24
0 31 0.3 0.14
0 32 0.64 0.2
0 33 0.6 0.08
0 34 0.34 0.2
0 35 0.66 0.25
0 36 0.65 0.17
0 37 0.69 0.24
0 38 0.7 0.17
0 39 0.46 0.25
1 2 0.71 0.2
1 3 0.42 0.18
1 4 0.6 0.11
1 5 0.72 0.16
1 6 0.63 0.17
1 7 0.72 0.23
1 8 0.64 0.12
1 9 0.64 0.22
1 10 0.56 0.28
1 11 0.74 0.26
1 12 0.59 0.24
1 13 0.63 0.12
1 14 0.29 0.0
1 15 0.51 0.28
1 16 0.8 0.32
1 17 0.72 0.08
1 18 0.39 0.18
1 19 0.16 0.1
1 20 0.6 0.18
1 21 0.62 0.08
1 22 0.66 0.09
1 23 0.6 0.18
1 24 0.3 0.26
1 25 0.54 0.2
1 26 0.6 0.2
1 27 0.44 0.13
1 28 0.73 0.17
1 29 0.24 0.15
1 30 0.5 0.16
1 31 0.42 0.0
1 32 0.4 0.18
1 33 0.66 0.22
1 34 0.66 0.23
1 35 0.56 0.28
1 36 0.47 0.25
1 37 0.4 0.1
1 38 0.65 0.18
1 39 0.55 0.11
2 3 0.48 0.16
2 4 0.38 0.12
2 5 0.6 0.14
2 6 0.62 0.2
2 7 0.41 0.26
2 8 0.29 0.13
2 9 0.68 0.18
2 10 0.55 0.08
2 11 0.46 0.22
2 12 0.64 0.24
2 13 0.42 0.21
2 14 0.56 0.2
2 15 0.6 0.28
2 16 0.5 0.16
2 17 0.81 0.17
2 18 0.66 0.16
2 19 0.62 0.24
2 20 0.57 0.27
2 21 0.6 0.17
2 22 0.78 0.18
2 23 0.67 0.12
2 24 0.49 0.24
2 25 0.58 0.24
2 26 0.3 0.26
2 27 0.53 0.14
2 28 0.49 0.18
2 29 0.66 0.16
2 30 0.38 0.06
2 31 0.64 0.2
2 32 0.63 0.02
2 33 0.52 0.26
2 34 0.55 0.23
2 35 0.32 0.24
2 36 0.42 0.26
2 37 0.77 0.22
2 38 0.45 0.18
2 39 0.72 0.11
3 4 0.58 0.15
3 5 0.54 0.16
3 6 0.39 0.2
3 7 0.58 0.22
3 8 0.64 0.27
3 9 0.66 0.22
3 10 0.44 0.24
3 11 0.32 0.22
3 12 0.5 0.24
3 13 0.39 0.06
3 14 0.52 0.18
3 15 0.45 0.28
3 16 0.76 0.2
3 17 0.7 0.1
3 18 0.69 0.24
3 19 0.54 0.28
3 20 0.62 0.2
3 21 0.54 0.1
3 22 0.74 0.11
3 23 0.32 0.14
3 24 0.4 0.16
3 25 0.6 0.31
3 26 0.36 0.14
3 27 0.42 0.13
3 28 0.66 0.17
3 29 0.18 0.15
3 30 0.52 0.21
3 31 0.7 0.18
3 32 0.75 0.14
3 33 0.33 0.2
3 34 0.57 0.27
3 35 0.28 0.1
3 36 0.57 0.18
3 37 0.63 0.26
3 38 0.68 0.18
3 39 0.55 0.25
4 5 0.6 0.2
4 6 0.56 0.14
4 7 0.48 0.2
4 8 0.4 0.16
4 9 0.58 0.18
4 10 0.48 0.2
4 11 0.53 0.25
4 12 0.84 0.26
4 13 0.72 0.09
4 14 0.38 0.11
4 15 0.59 0.26
4 16 0.59 0.28
4 17 0.44 0.14
4 18 0.33 0.26
4 19 0.76 0.18
4 20 0.52 0.24
4 21 0.58 0.14
4 22 0.4 0.15
4 23 0.55 0.22
4 24 0.64 0.24
4 25 0.48 0.29
4 26 0.6 0.17
4 27 0.16 0.02
4 28 0.52 0.06
4 29 0.57 0.04
4 30 0.7 0.06
4 31 0.6 0.11
4 32 0.73 0.14
4 33 0.39 0.21
4 34 0.5 0.16
4 35 0.66 0.25
4 36 0.56 0.28
4 37 0.68 0.21
4 38 0.48 0.16
4 39 0.61 0.11
5 6 0.38 0.1
5 7 0.6 0.16
5 8 0.68 0.17
5 9 0.64 0.26
5 10 0.54 0.22
5 11 0.66 0.12
5 12 0.6 0.18
5 13 0.41 0.2
5 14 0.71 0.16
5 15 0.66 0.18
5 16 0.72 0.3
5 17 0.56 0.08
5 18 0.74 0.24
5 19 0.62 0.25
5 20 0.56 0.18
5 21 0.56 0.08
5 22 0.62 0.09
5 23 0.65 0.02
5 24 0.64 0.2
5 25 0.49 0.26
5 26 0.49 0.24
5 27 0.76 0.21
5 28 0.54 0.25
5 29 0.55 0.23
5 30 0.65 0.14
5 31 0.33 0.16
5 32 0.34 0.16
5 33 0.67 0.17
5 34 0.49 0.21
5 35 0.55 0.2
5 36 0.28 0.12
5 37 0.38 0.16
5 38 0.7 0.08
5 39 0.45 0.09
6 7 0.66 0.1
6 8 0.33 0.12
6 9 0.53 0.28
6 10 0.78 0.28
6 11 0.71 0.18
6 12 0.64 0.27
6 13 0.78 0.14
6 14 0.7 0.17
6 15 0.6 0.12
6 16 0.65 0.36
6 17 0.66 0.18
6 18 0.38 0.15
6 19 0.6 0.19
6 20 0.65 0.28
6 21 0.39 0.18
6 22 0.59 0.19
6 23 0.71 0.08
6 24 0.73 0.23
6 25 0.81 0.17
6 26 0.75 0.18
6 27 0.57 0.12
6 28 0.75 0.16
6 29 0.39 0.14
6 30 0.66 0.2
6 31 0.6 0.17
6 32 0.58 0.22
6 33 0.72 0.23
6 34 0.66 0.23
6 35 0.67 0.26
6 36 0.57 0.18
6 37 0.66 0.07
6 38 0.47 0.02
6 39 0.76 0.19
7 8 0.47 0.22
7 9 0.51 0.34
7 10 0.87 0.34
7 11 0.5 0.24
7 12 0.64 0.18
7 13 0.46 0.16
7 14 0.55 0.23
7 15 0.44 0.1
7 16 0.75 0.37
7 17 0.61 0.19
7 18 0.33 0.21
7 19 0.68 0.26
7 20 0.78 0.22
7 21 0.7 0.19
7 22 0.65 0.18
7 23 0.61 0.14
7 24 0.58 0.29
7 25 0.75 0.26
7 26 0.58 0.08
7 27 0.33 0.18
7 28 0.61 0.22
7 29 0.71 0.2
7 30 0.7 0.26
7 31 0.48 0.23
7 32 0.73 0.28
7 33 0.62 0.17
7 34 0.28 0.22
7 35 0.73 0.16
7 36 0.5 0.08
7 37 0.51 0.16
7 38 0.72 0.08
7 39 0.56 0.25
8 9 0.62 0.3
8 10 0.78 0.21
8 11 0.61 0.29
8 12 0.54 0.28
8 13 0.54 0.21
8 14 0.46 0.12
8 15 0.4 0.24
8 16 0.68 0.29
8 17 0.52 0.2
8 18 0.71 0.2
8 19 0.48 0.12
8 20 0.5 0.3
8 21 0.42 0.2
8 22 0.62 0.21
8 23 0.42 0.19
8 24 0.6 0.28
8 25 0.49 0.29
8 26 0.59 0.29
8 27 0.24 0.14
8 28 0.42 0.18
8 29 0.54 0.16
8 30 0.67 0.18
8 31 0.61 0.12
8 32 0.34 0.15
8 33 0.58 0.3
8 34 0.75 0.28
8 35 0.59 0.37
8 36 0.5 0.29
8 37 0.72 0.19
8 38 0.7 0.14
8 39 0.77 0.23
9 10 0.7 0.26
9 11 0.54 0.34
9 12 0.34 0.26
9 13 0.83 0.23
9 14 0.58 0.22
9 15 0.68 0.36
9 16 0.6 0.34
9 17 0.36 0.22
9 18 0.5 0.14
9 19 0.64 0.22
9 20 0.36 0.28
9 21 0.41 0.22
9 22 0.61 0.23
9 23 0.56 0.24
9 24 0.56 0.06
9 25 0.62 0.21
9 26 0.71 0.31
9 27 0.5 0.16
9 28 0.52 0.2
9 29 0.84 0.14
9 30 0.5 0.24
9 31 0.47 0.22
9 32 0.55 0.2
9 33 0.48 0.34
9 34 0.46 0.26
9 35 0.58 0.26
9 36 0.5 0.31
9 37 0.58 0.24
9 38 0.62 0.3
9 39 0.51 0.29
10 11 0.46 0.3
10 12 0.71 0.32
10 13 0.53 0.29
10 14 0.76 0.28
10 15 0.52 0.36
10 16 0.72 0.24
10 17 0.76 0.25
10 18 0.74 0.24
10 19 0.72 0.29
10 20 0.51 0.35
10 21 0.86 0.25
10 22 0.66 0.26
10 23 0.66 0.2
10 24 0.38 0.2
10 25 0.76 0.32
10 26 0.5 0.34
10 27 0.54 0.22
10 28 0.48 0.26
10 29 0.59 0.24
10 30 0.55 0.14
10 31 0.72 0.28
10 32 0.45 0.1
10 33 0.72 0.34
10 34 0.77 0.31
10 35 0.72 0.32
10 36 0.71 0.34
10 37 0.53 0.3
10 38 0.54 0.26
10 39 0.8 0.19
11 12 0.38 0.09
11 13 0.62 0.16
11 14 0.54 0.26
11 15 0.65 0.16
11 16 0.6 0.18
11 17 0.65 0.2
11 18 0.82 0.33
11 19 0.81 0.25
11 20 0.44 0.28
11 21 0.5 0.2
11 22 0.58 0.21
11 23 0.61 0.1
11 24 0.54 0.28
11 25 0.5 0.34
11 26 0.58 0.19
11 27 0.37 0.23
11 28 0.37 0.27
11 29 0.5 0.25
11 30 0.69 0.26
11 31 0.72 0.26
11 32 0.53 0.24
11 33 0.45 0.25
11 34 0.35 0.31
11 35 0.36 0.24
11 36 0.79 0.24
11 37 0.68 0.24
11 38 0.72 0.16
11 39 0.67 0.21
12 13 0.5 0.18
12 14 0.48 0.24
12 15 0.35 0.25
12 16 0.66 0.26
12 17 0.7 0.17
12 18 0.66 0.24
12 19 0.43 0.16
12 20 0.69 0.27
12 21 0.7 0.17
12 22 0.5 0.16
12 23 0.42 0.19
12 24 0.44 0.32
12 25 0.58 0.38
12 26 0.51 0.1
12 27 0.68 0.24
12 28 0.4 0.2
12 29 0.62 0.26
12 30 0.69 0.2
12 31 0.68 0.24
12 32 0.26 0.22
12 33 0.5 0.27
12 34 0.55 0.27
12 35 0.71 0.33
12 36 0.72 0.26
12 37 0.67 0.28
12 38 0.62 0.25
12 39 0.72 0.15
13 14 0.59 0.12
13 15 0.54 0.22
13 16 0.7 0.26
13 17 0.65 0.16
13 18 0.66 0.23
13 19 0.56 0.22
13 20 0.54 0.26
13 21 0.64 0.16
13 22 0.64 0.17
13 23 0.49 0.18
13 24 0.5 0.22
13 25 0.39 0.28
13 26 0.12 0.08
13 27 0.56 0.07
13 28 0.62 0.11
13 29 0.57 0.09
13 30 0.63 0.15
13 31 0.54 0.12
13 32 0.47 0.2
13 33 0.54 0.19
13 34 0.66 0.21
13 35 0.56 0.16
13 36 0.33 0.24
13 37 0.63 0.2
13 38 0.32 0.12
13 39 0.54 0.2
14 15 0.55 0.28
14 16 0.6 0.32
14 17 0.5 0.08
14 18 0.64 0.18
14 19 0.45 0.1
14 20 0.73 0.18
14 21 0.46 0.08
14 22 0.66 0.09
14 23 0.7 0.18
14 24 0.59 0.26
14 25 0.6 0.2
14 26 0.47 0.2
14 27 0.22 0.13
14 28 0.88 0.17
14 29 0.34 0.15
14 30 0.53 0.16
14 31 0.38 0.0
14 32 0.58 0.18
14 33 0.68 0.22
14 34 0.58 0.23
14 35 0.8 0.28
14 36 0.68 0.25
14 37 0.69 0.1
14 38 0.51 0.18
14 39 0.54 0.11
15 16 0.74 0.34
15 17 0.64 0.26
15 18 0.73 0.27
15 19 0.67 0.3
15 20 0.34 0.26
15 21 0.8 0.26
15 22 0.62 0.27
15 23 0.36 0.16
15 24 0.7 0.34
15 25 0.58 0.28
15 26 0.42 0.18
15 27 0.62 0.24
15 28 0.37 0.28
15 29 0.27 0.22
15 30 0.63 0.32
15 31 0.58 0.28
15 32 0.61 0.3
15 33 0.2 0.18
15 34 0.69 0.15
15 35 0.36 0.23
15 36 0.63 0.18
15 37 0.44 0.18
15 38 0.7 0.1
15 39 0.42 0.27
16 17 0.58 0.24
16 18 0.65 0.28
16 19 0.74 0.36
16 20 0.4 0.34
16 21 0.62 0.24
16 22 0.58 0.25
16 23 0.78 0.28
16 24 0.61 0.36
16 25 0.45 0.36
16 26 0.7 0.34
16 27 0.56 0.3
16 28 0.69 0.3
16 29 0.58 0.32
16 30 0.47 0.22
16 31 0.57 0.32
16 32 0.4 0.14
16 33 0.72 0.4
16 34 0.58 0.39
16 35 0.79 0.24
16 36 0.76 0.32
16 37 0.68 0.35
16 38 0.71 0.34
16 39 0.65 0.27
17 18 0.43 0.16
17 19 0.64 0.18
17 20 0.5 0.1
17 21 0.62 0.0
17 22 0.52 0.01
17 23 0.4 0.1
17 24 0.42 0.24
17 25 0.26 0.25
17 26 0.64 0.24
17 27 0.28 0.13
17 28 0.79 0.17
17 29 0.68 0.15
17 30 0.56 0.11
17 31 0.74 0.08
17 32 0.54 0.19
17 33 0.56 0.25
17 34 0.5 0.27
17 35 0.8 0.2
17 36 0.74 0.2
17 37 0.5 0.18
17 38 0.54 0.16
17 39 0.58 0.16
18 19 0.55 0.08
18 20 0.48 0.26
18 21 0.39 0.16
18 22 0.32 0.17
18 23 0.62 0.23
18 24 0.38 0.08
18 25 0.68 0.19
18 26 0.65 0.26
18 27 0.49 0.24
18 28 0.54 0.28
18 29 0.63 0.22
18 30 0.56 0.22
18 31 0.65 0.18
18 32 0.4 0.14
18 33 0.54 0.2
18 34 0.61 0.31
18 35 0.73 0.28
18 36 0.62 0.29
18 37 0.44 0.2
18 38 0.67 0.17
18 39 0.72 0.27
19 20 0.69 0.28
19 21 0.64 0.18
19 22 0.53 0.19
19 23 0.66 0.26
19 24 0.46 0.16
19 25 0.38 0.22
19 26 0.68 0.18
19 27 0.6 0.16
19 28 0.83 0.2
19 29 0.4 0.14
19 30 0.52 0.24
19 31 0.38 0.1
19 32 0.56 0.22
19 33 0.5 0.28
19 34 0.76 0.23
19 35 0.72 0.36
19 36 0.52 0.34
19 37 0.24 0.12
19 38 0.49 0.2
19 39 0.54 0.21
20 21 0.68 0.1
20 22 0.55 0.11
20 23 0.52 0.2
20 24 0.42 0.34
20 25 0.31 0.21
20 26 0.66 0.3
20 27 0.52 0.22
20 28 0.71 0.26
20 29 0.57 0.2
20 30 0.58 0.21
20 31 0.46 0.18
20 32 0.5 0.29
20 33 0.54 0.35
20 34 0.5 0.28
20 35 0.7 0.3
20 36 0.78 0.3
20 37 0.55 0.28
20 38 0.36 0.26
20 39 0.62 0.2
21 22 0.2 0.01
21 23 0.5 0.1
21 24 0.7 0.24
21 25 0.54 0.25
21 26 0.65 0.24
21 27 0.42 0.13
21 28 0.58 0.17
21 29 0.6 0.15
21 30 0.58 0.11
21 31 0.26 0.08
21 32 0.74 0.19
21 33 0.64 0.25
21 34 0.66 0.27
21 35 0.68 0.2
21 36 0.44 0.2
21 37 0.78 0.18
21 38 0.32 0.16
21 39 0.42 0.16
22 23 0.7 0.11
22 24 0.7 0.25
22 25 0.74 0.26
22 26 0.74 0.25
22 27 0.56 0.14
22 28 0.78 0.18
22 29 0.64 0.16
22 30 0.54 0.12
22 31 0.36 0.09
22 32 0.72 0.2
22 33 0.62 0.26
22 34 0.82 0.28
22 35 0.48 0.21
22 36 0.64 0.21
22 37 0.6 0.19
22 38 0.52 0.17
22 39 0.4 0.17
23 24 0.7 0.18
23 25 0.54 0.24
23 26 0.37 0.22
23 27 0.66 0.2
23 28 0.5 0.24
23 29 0.36 0.22
23 30 0.59 0.16
23 31 0.54 0.18
23 32 0.59 0.14
23 33 0.16 0.15
23 34 0.33 0.23
23 35 0.6 0.22
23 36 0.38 0.14
23 37 0.74 0.14
23 38 0.54 0.06
23 39 0.38 0.11
24 25 0.48 0.15
24 26 0.57 0.3
24 27 0.48 0.22
24 28 0.56 0.26
24 29 0.54 0.2
24 30 0.8 0.3
24 31 0.71 0.26
24 32 0.64 0.22
24 33 0.73 0.28
24 34 0.39 0.29
24 35 0.6 0.2
24 36 0.36 0.28
24 37 0.28 0.18
24 38 0.52 0.24
24 39 0.72 0.29
25 26 0.51 0.34
25 27 0.54 0.27
25 28 0.74 0.23
25 29 0.42 0.28
25 30 0.53 0.26
25 31 0.7 0.2
25 32 0.44 0.22
25 33 0.48 0.22
25 34 0.76 0.16
25 35 0.56 0.35
25 36 0.48 0.34
25 37 0.24 0.1
25 38 0.67 0.18
25 39 0.54 0.28
26 27 0.44 0.15
26 28 0.74 0.19
26 29 0.54 0.17
26 30 0.51 0.23
26 31 0.54 0.2
26 32 0.41 0.28
26 33 0.42 0.17
26 34 0.7 0.29
26 35 0.56 0.24
26 36 0.21 0.16
26 37 0.54 0.24
26 38 0.39 0.16
26 39 0.64 0.25
27 28 0.66 0.04
27 29 0.56 0.02
27 30 0.63 0.08
27 31 0.6 0.13
27 32 0.58 0.16
27 33 0.55 0.19
27 34 0.61 0.14
27 35 0.62 0.23
27 36 0.65 0.26
27 37 0.52 0.19
27 38 0.57 0.14
27 39 0.64 0.13
28 29 0.64 0.06
28 30 0.41 0.12
28 31 0.51 0.17
28 32 0.36 0.16
28 33 0.34 0.15
28 34 0.67 0.18
28 35 0.38 0.27
28 36 0.57 0.3
28 37 0.68 0.23
28 38 0.66 0.18
28 39 0.46 0.17
29 30 0.66 0.1
29 31 0.66 0.15
29 32 0.57 0.18
29 33 0.47 0.21
29 34 0.69 0.12
29 35 0.46 0.25
29 36 0.71 0.28
29 37 0.64 0.21
29 38 0.78 0.16
29 39 0.69 0.15
30 31 0.32 0.16
30 32 0.44 0.08
30 33 0.43 0.25
30 34 0.9 0.17
30 35 0.7 0.3
30 36 0.72 0.26
30 37 0.76 0.16
30 38 0.58 0.22
30 39 0.48 0.05
31 32 0.48 0.18
31 33 0.38 0.22
31 34 0.64 0.23
31 35 0.7 0.28
31 36 0.61 0.25
31 37 0.62 0.1
31 38 0.43 0.18
31 39 0.16 0.11
32 33 0.7 0.28
32 34 0.72 0.25
32 35 0.74 0.22
32 36 0.52 0.28
32 37 0.6 0.24
32 38 0.46 0.2
32 39 0.5 0.13
33 34 0.49 0.18
33 35 0.56 0.3
33 36 0.54 0.25
33 37 0.58 0.29
33 38 0.7 0.21
33 39 0.22 0.2
34 35 0.46 0.37
34 36 0.68 0.3
34 37 0.67 0.26
34 38 0.74 0.25
34 39 0.58 0.12
35 36 0.55 0.08
35 37 0.66 0.32
35 38 0.55 0.24
35 39 0.62 0.29
36 37 0.57 0.24
36 38 0.6 0.16
36 39 0.6 0.21
37 38 0.56 0.08
37 39 0.5 0.21
38 39 0.48 0.17
